p cnf 12 50 
1 -3 -10 0
1 -3 6 0
-3 5 -2 0
-9 12 7 0
8 -11 2 0
3 7 -4 0
-1 -2 -9 0
5 8 9 0
-7 -3 5 0
-9 -1 11 0
-7 10 -12 0
-10 8 6 0
-11 6 12 0
-4 5 11 0
9 -5 10 0
-11 1 -10 0
7 12 1 0
-7 -2 11 0
-1 10 -11 0
6 -11 -8 0
5 7 -12 0
-8 -4 -10 0
-12 10 9 0
-9 -12 -10 0
-8 -9 1 0
3 12 -2 0
6 -12 -4 0
-12 10 -9 0
-2 10 6 0
9 7 -12 0
-9 11 -4 0
9 -10 12 0
6 -3 8 0
4 5 -1 0
3 10 -12 0
-1 -9 -5 0
-1 5 6 0
1 4 9 0
9 -2 -6 0
10 11 8 0
5 1 -3 0
4 -8 -2 0
-1 -12 10 0
6 11 -10 0
9 6 -8 0
3 1 -8 0
9 -2 -1 0
-6 12 -3 0
-1 -4 -5 0
-3 -1 -9 0
